NAME : instances/clustered-mixed-tsp/instance-90.tsp
COMMENT : No Comment
TYPE : TSP
DIMENSION: 54
EDGE_WEIGHT_TYPE : EUC_2D
NODE_COORD_SECTION
1 460 347 
2 309 285 
3 178 689 
4 79 491 
5 917 -60 
6 90 414 
7 1126 589 
8 510 147 
9 216 86 
10 -15 251 
11 145 744 
12 244 601 
13 660 374 
14 966 71 
15 551 65 
16 -4 -35 
17 1142 379 
18 829 578 
19 18 -68 
20 438 39 
21 239 328 
22 818 776 
23 565 -84 
24 350 50 
25 485 87 
26 939 633 
27 276 428 
28 730 180 
29 376 700 
30 812 346 
31 449 94 
32 902 308 
33 642 160 
34 361 -16 
35 642 259 
36 944 181 
37 239 9 
38 957 462 
39 675 39 
40 939 729 
41 101 733 
42 950 149 
43 515 303 
44 455 15 
45 667 760 
46 614 28 
47 565 -62 
48 393 75 
49 818 83 
50 939 564 
51 444 224 
52 598 28 
53 405 50 
54 481 20 
EOF
